SECTION Graph 
Nodes 50
Edges 462
E 1 4 67
E 1 6 92
E 1 8 30
E 1 14 84
E 1 17 26
E 1 19 42
E 1 23 68
E 1 26 97
E 1 27 74
E 1 28 2
E 1 29 58
E 1 30 78
E 1 32 81
E 1 34 97
E 1 35 19
E 1 41 93
E 1 42 71
E 1 48 43
E 1 49 18
E 1 50 99
E 2 5 30
E 2 13 75
E 2 14 53
E 2 15 98
E 2 16 20
E 2 27 23
E 2 30 94
E 2 32 82
E 2 36 64
E 2 41 34
E 2 42 16
E 2 44 71
E 2 46 94
E 2 47 6
E 3 5 22
E 3 6 32
E 3 7 73
E 3 9 76
E 3 10 80
E 3 11 70
E 3 12 32
E 3 13 27
E 3 15 86
E 3 16 78
E 3 18 16
E 3 21 34
E 3 22 44
E 3 25 87
E 3 26 98
E 3 28 91
E 3 30 24
E 3 31 51
E 3 33 77
E 3 37 8
E 3 38 55
E 3 44 31
E 3 45 13
E 3 46 63
E 3 47 8
E 3 48 58
E 4 5 7
E 4 7 26
E 4 9 66
E 4 10 24
E 4 12 53
E 4 14 62
E 4 21 76
E 4 24 43
E 4 25 57
E 4 27 3
E 4 30 9
E 4 32 72
E 4 33 92
E 4 37 42
E 4 38 48
E 4 40 53
E 4 44 70
E 4 47 79
E 4 48 52
E 5 7 47
E 5 8 92
E 5 11 1
E 5 12 83
E 5 13 89
E 5 14 79
E 5 24 90
E 5 27 58
E 5 29 98
E 5 30 97
E 5 32 40
E 5 38 55
E 5 41 59
E 5 43 46
E 5 44 70
E 5 45 48
E 5 47 1
E 5 49 21
E 6 8 63
E 6 10 86
E 6 14 90
E 6 16 76
E 6 18 53
E 6 20 93
E 6 21 72
E 6 26 15
E 6 27 54
E 6 28 61
E 6 29 24
E 6 33 91
E 6 38 81
E 6 39 79
E 6 40 10
E 6 41 67
E 6 45 92
E 6 46 17
E 7 8 26
E 7 10 94
E 7 14 14
E 7 15 68
E 7 17 83
E 7 20 18
E 7 27 75
E 7 28 2
E 7 30 87
E 7 31 63
E 7 33 82
E 7 36 95
E 7 38 39
E 7 41 76
E 7 42 2
E 7 43 92
E 7 44 20
E 7 45 13
E 7 46 74
E 8 10 58
E 8 11 32
E 8 13 27
E 8 16 82
E 8 18 44
E 8 19 21
E 8 22 81
E 8 24 45
E 8 25 80
E 8 27 42
E 8 29 33
E 8 32 86
E 8 40 33
E 8 44 17
E 8 45 46
E 8 48 79
E 8 49 33
E 8 50 50
E 9 12 36
E 9 14 52
E 9 15 61
E 9 18 83
E 9 19 7
E 9 21 39
E 9 24 5
E 9 25 73
E 9 28 94
E 9 30 87
E 9 33 28
E 9 37 37
E 9 40 61
E 9 42 53
E 9 43 1
E 9 45 43
E 9 46 12
E 9 48 22
E 10 12 19
E 10 13 77
E 10 16 34
E 10 18 61
E 10 21 17
E 10 23 99
E 10 29 66
E 10 34 44
E 10 44 40
E 10 45 82
E 10 49 41
E 10 50 30
E 11 17 9
E 11 18 57
E 11 19 80
E 11 21 28
E 11 22 37
E 11 24 8
E 11 28 29
E 11 29 95
E 11 35 9
E 11 36 76
E 11 39 71
E 11 45 97
E 11 49 59
E 11 50 22
E 12 14 81
E 12 16 46
E 12 18 69
E 12 21 76
E 12 22 23
E 12 23 69
E 12 27 44
E 12 28 38
E 12 30 72
E 12 35 21
E 12 40 78
E 12 41 18
E 12 42 8
E 12 43 60
E 12 45 95
E 12 47 17
E 13 15 50
E 13 17 66
E 13 18 27
E 13 19 40
E 13 23 8
E 13 25 90
E 13 26 81
E 13 28 43
E 13 29 93
E 13 32 98
E 13 33 89
E 13 38 22
E 13 40 86
E 13 42 60
E 13 45 82
E 13 48 54
E 14 15 34
E 14 18 73
E 14 19 44
E 14 20 71
E 14 21 32
E 14 25 41
E 14 26 29
E 14 29 75
E 14 34 84
E 14 35 51
E 14 40 61
E 14 41 11
E 14 42 13
E 14 46 6
E 14 49 20
E 15 18 14
E 15 19 65
E 15 21 83
E 15 23 97
E 15 24 23
E 15 26 98
E 15 28 89
E 15 29 45
E 15 30 68
E 15 33 100
E 15 35 51
E 15 38 82
E 15 41 36
E 15 42 47
E 15 45 5
E 15 46 41
E 15 47 33
E 15 48 21
E 16 21 71
E 16 25 88
E 16 27 39
E 16 32 76
E 16 38 77
E 16 42 89
E 16 45 2
E 16 48 63
E 17 18 5
E 17 24 99
E 17 27 82
E 17 28 4
E 17 30 91
E 17 37 89
E 17 41 54
E 17 42 91
E 17 44 85
E 17 47 16
E 17 48 33
E 17 49 47
E 18 23 71
E 18 31 73
E 18 33 93
E 18 37 82
E 18 42 84
E 18 44 85
E 18 48 15
E 19 20 35
E 19 27 31
E 19 32 6
E 19 35 51
E 19 36 23
E 19 37 93
E 19 41 69
E 19 42 27
E 19 43 93
E 19 44 40
E 19 47 15
E 19 48 21
E 19 49 81
E 20 25 11
E 20 27 13
E 20 30 84
E 20 33 63
E 20 34 94
E 20 37 89
E 20 39 54
E 20 41 18
E 20 44 19
E 20 45 82
E 20 48 84
E 20 50 33
E 21 22 99
E 21 27 99
E 21 32 77
E 21 36 92
E 21 37 75
E 21 41 32
E 21 44 22
E 21 45 85
E 22 27 49
E 22 30 48
E 22 33 67
E 22 37 41
E 22 38 83
E 22 39 54
E 22 40 11
E 22 43 91
E 22 44 78
E 22 48 9
E 23 24 7
E 23 25 84
E 23 27 25
E 23 28 93
E 23 33 14
E 23 36 79
E 23 37 61
E 23 42 98
E 23 43 50
E 23 44 55
E 23 46 98
E 23 47 34
E 24 25 50
E 24 28 39
E 24 29 8
E 24 30 7
E 24 31 52
E 24 36 78
E 24 40 75
E 24 43 68
E 24 44 53
E 24 46 25
E 24 48 18
E 25 26 75
E 25 29 39
E 25 30 26
E 25 32 64
E 25 33 98
E 25 38 78
E 25 39 5
E 25 43 31
E 25 45 90
E 25 47 63
E 25 48 56
E 26 29 18
E 26 30 84
E 26 35 70
E 26 38 100
E 26 42 45
E 26 44 32
E 26 46 3
E 27 33 61
E 27 34 65
E 27 36 3
E 27 37 9
E 27 39 99
E 27 44 54
E 27 45 55
E 27 48 39
E 28 30 7
E 28 31 17
E 28 33 13
E 28 35 89
E 28 39 53
E 28 40 4
E 28 43 8
E 28 44 8
E 29 30 93
E 29 34 58
E 29 43 8
E 29 44 89
E 29 47 80
E 29 49 78
E 29 50 51
E 30 32 82
E 30 34 84
E 30 42 58
E 30 50 93
E 31 34 55
E 31 35 72
E 31 39 73
E 31 41 50
E 31 43 99
E 31 45 14
E 32 33 63
E 32 35 27
E 32 36 45
E 32 40 50
E 32 42 99
E 32 50 89
E 33 35 80
E 33 36 53
E 33 37 83
E 33 40 67
E 33 43 84
E 33 45 7
E 33 47 4
E 33 48 76
E 34 35 62
E 34 37 99
E 34 38 99
E 34 39 97
E 34 40 95
E 34 41 73
E 34 47 72
E 35 39 38
E 35 44 48
E 35 49 83
E 35 50 64
E 36 37 64
E 36 39 26
E 36 41 25
E 36 42 23
E 36 43 98
E 36 46 65
E 36 47 79
E 37 38 69
E 37 41 64
E 38 39 42
E 38 43 77
E 38 44 77
E 38 47 16
E 38 48 22
E 39 45 38
E 39 47 2
E 39 50 100
E 40 50 60
E 41 46 47
E 41 47 83
E 41 49 61
E 42 45 11
E 43 44 89
E 43 46 38
E 43 47 35
E 44 47 22
E 44 49 88
E 45 50 59
E 46 50 94
E 48 49 60
E 48 50 91
E 49 50 82
END 

SECTION Terminals 
Terminals 10
TP 46 26
TP 45 24
TP 44 21
TP 39 16
TP 35 9
END 
